clingo version 4.2.1
Reading from akarispaces.lp ...
Solving...
Answer: 1
lit(2,3) lit(1,3) lit(0,3) lit(3,2) lit(3,1) lit(3,0) -lit(0,0) -lit(1,0) -lit(2,0) -lit(0,1) -lit(1,1) -lit(2,1) -lit(0,2) -lit(1,2) -lit(2,2)
SATISFIABLE

Models       : 1+    
Calls        : 1
Time         : 0.011s (Solving: 0.00s 1st Model: 0.00s Unsat: 0.00s)
CPU Time     : 0.000s

